50
100
100
98
95
94
94
94
93
92
87
85
85
84
83
82
81
78
78
75
73
72
71
71
70
70
68
67
67
66
65
64
60
59
58
57
56
56
56
55
55
54
51
49
46
45
43
43
43
37
36
35
